n_res = 4;
rcap = [13, 14, 40, 46];
rtype = [1, 1, 2, 2];
n_tasks = 16;
modes = [ {1}, {2}, {3}, {4}, {5}, {6}, {7}, {8}, {9}, {10}, {11}, {12}, {13}, {14}, {15}, {16} ];
succ = [ {8, 9, 10}, {4, 7, 9}, {4, 8, 12}, {5, 13}, {6, 10, 15}, {11, 16}, {12, 14}, {11, 16}, {11, 15}, {14}, {14}, {13}, {15, 16}, {}, {}, {} ];
n_opt = 16;
dur = [9, 5, 10, 10, 1, 3, 9, 7, 8, 10, 1, 5, 9, 6, 7, 5];
rreq = [|  6,  6,  5,  7,  7,  1,  6,  5,  8,  8,  3,  5,  9,  7,  5,  8
        |  5, 10,  5,  7,  3, 10,  8,  3,  1, 10,  4,  8,  6,  2,  4,  6
        |  0,  5,  7,  0,  0,  0,  0, 10,  0,  8,  3,  0,  0,  5,  2,  0
        |  8,  0,  0,  4,  7,  9,  2,  0,  4,  0,  0,  6,  3,  0,  0,  3 |];
